
   AbsCon 1.41 (January, 2014) - defaultConfiguration

   
   instance
        framework=CSP  name=Isomorphism-/cluster/gpg/ciaran/sip-benchmarks/benchmarks/images-CVIU11/patterns/pattern42-/cluster/gpg/ciaran/sip-benchmarks/benchmarks/images-CVIU11/targets/target78
        parameters=/cluster/gpg/ciaran/sip-benchmarks/benchmarks/images-CVIU11/patterns/pattern42,/cluster/gpg/ciaran/sip-benchmarks/benchmarks/images-CVIU11/targets/target78
      

   loading variables...
        nbVariables=97  nbDomainTypes=1  nbTotalValues=532433  domainSizes=(5489:97)
          =>  wckTime=0.372  cpuTime=0.363  mem=255M480

   loading objectives...

   loading constraints...
        nbConstraints=137  nbSpecificConstraints=1  nbExtensionStructures=(1,shared:135)  nbConflictsStructures=(1,shared:135,unbuilt:1)
        degrees=(3:21)(4:74)(5:2)  arities=(2:136)(97:1)  types=(AllDifferent:1)(ConstraintHardExtensionV-Bits:136)
          =>  wckTime=0.698  cpuTime=0.675  mem=275M743

   INFO : <!-- Start saving the XML representation -->

   INFO : <!-- Stop saving the XML representation of target78.xml -->

   Solver SolverBacktrack being built... 

   INFO : Stop creating residues for RevisionManagerBitRm
          =>  wckTime=6.059  cpuTime=5.561  mem=771M419

   
   search
        run=0  nbConstraintChecks=0  depth=(min:0,max:0,avg:1)  nbEffectivePropagations=85245  nbRevisions=246761  nbUselessRevisions=161517
        nbAssignments=5356  nbFailedAssignments=5356  nbBacktracks=1  nbVisitedNodes=10713  nbRestartNogoods=0
          =>  wckTime=3044.123  cpuTime=3006.525  mem=2501M486

   
   global
        nbConstraintChecks=0  nbEffectivePropagations=85245  nbRevisions=246761  nbUselessRevisions=161517  nbRestartNogoods=0
        solvingWckTime=3044.124  expiredTime=no  totalExploration=yes  nbFoundSolutions=0  Stop=FULL_EXPLORATION
          =>  wckTime=3050.184  cpuTime=3006.526  mem=2501M486

s UNSATISFIABLE
d NODES 5356

   totalWckTime=3050.063  totalCpuTime=3006.531
